NAME : local_17
TYPE : ATSP
DIMENSION : 8
EDGE_WEIGHT_TYPE : EXPLICIT
EDGE_WEIGHT_FORMAT : FULL_MATRIX
EDGE_WEIGHT_SECTION
0 582 525 392 790 900 754 0 
0 0 147 241 480 10000000 10000000 582 
0 147 0 176 577 10000000 10000000 525 
0 241 176 0 526 10000000 10000000 392 
0 480 577 526 0 10000000 10000000 790 
0 10000000 10000000 10000000 10000000 0 275 884 
0 10000000 10000000 10000000 10000000 275 0 754 
0 10000000 10000000 10000000 10000000 10000000 10000000 0 
EOF